c uprop, v00.0, 
c reading from data/prog488.c.cnf
c done reading: 0.002773
p cnf 180 820
-87 -105 0
87 105 0
-82 105 0
82 -105 0
87 -99 0
-97 -99 0
-87 97 99 0
-87 -92 97 0
87 -92 -97 0
87 92 97 0
-87 92 -97 0
-88 99 0
-85 -88 0
85 88 -99 0
-84 85 -99 0
-84 -85 99 0
84 85 99 0
84 -85 -99 0
-83 88 0
-80 -83 0
80 83 -88 0
-78 80 -88 0
-78 -80 88 0
78 80 88 0
78 -80 -88 0
83 -103 0
-101 -103 0
-83 101 103 0
-83 101 -107 0
83 -101 -107 0
83 101 107 0
-83 -101 107 0
103 -108 0
-94 -108 0
94 -103 108 0
94 -103 -109 0
-94 103 -109 0
94 103 109 0
-94 -103 109 0
108 -110 0
-90 -110 0
90 -108 110 0
90 -108 -111 0
-90 108 -111 0
90 108 111 0
-90 -108 111 0
105 -112 0
-105 112 0
-97 -105 113 0
97 105 -113 0
97 -113 0
105 -113 0
97 -113 -114 0
105 -113 -114 0
-113 -114 0
-97 113 114 0
-105 113 114 0
97 105 -114 0
-85 -97 115 0
-85 -113 115 0
-97 -113 115 0
85 97 -115 0
85 113 -115 0
97 113 -115 0
85 -115 -116 0
97 -115 -116 0
113 -115 -116 0
-85 115 116 0
-97 115 116 0
-113 115 116 0
-85 -97 -113 116 0
85 97 113 -116 0
-80 -85 117 0
-80 -115 117 0
-85 -115 117 0
80 85 -117 0
80 115 -117 0
85 115 -117 0
80 -117 -118 0
85 -117 -118 0
115 -117 -118 0
-80 117 118 0
-85 117 118 0
-115 117 118 0
-80 -85 -115 118 0
80 85 115 -118 0
-80 -101 119 0
-101 -117 119 0
-80 -117 119 0
80 101 -119 0
101 117 -119 0
80 117 -119 0
-77 101 -119 0
-77 80 -119 0
-77 117 -119 0
77 -101 119 0
77 -80 119 0
77 -117 119 0
77 -80 -101 -117 0
-77 80 101 117 0
76 -94 -101 0
76 -94 -119 0
76 -101 -119 0
-76 94 101 0
-76 94 119 0
-76 101 119 0
-75 -76 94 0
-75 -76 101 0
-75 -76 119 0
75 76 -94 0
75 76 -101 0
75 76 -119 0
75 -94 -101 -119 0
-75 94 101 119 0
74 -90 -94 0
74 -76 -90 0
74 -76 -94 0
-74 90 94 0
-74 76 90 0
-74 76 94 0
-73 -74 90 0
-73 -74 94 0
-73 -74 76 0
73 74 -90 0
73 74 -94 0
73 74 -76 0
73 -76 -90 -94 0
-73 76 90 94 0
90 -104 0
74 -104 0
-74 -90 104 0
-74 -90 -96 0
74 90 -96 0
74 -90 96 0
-74 90 96 0
-79 114 0
79 -114 0
100 -105 -116 0
-100 105 116 0
-100 116 0
-100 105 0
-93 -100 116 0
-93 -100 105 0
-93 -100 0
93 100 -116 0
93 100 -105 0
-93 105 116 0
89 -97 -118 0
89 -100 -118 0
89 -97 -100 0
-89 97 118 0
-89 100 118 0
-89 97 100 0
-72 -89 118 0
-72 -89 97 0
-72 -89 100 0
72 89 -118 0
72 89 -97 0
72 89 -100 0
72 -97 -100 -118 0
-72 97 100 118 0
71 -77 -85 0
71 -77 -89 0
71 -85 -89 0
-71 77 85 0
-71 77 89 0
-71 85 89 0
-70 -71 77 0
-70 -71 85 0
-70 -71 89 0
70 71 -77 0
70 71 -85 0
70 71 -89 0
70 -77 -85 -89 0
-70 77 85 89 0
69 -75 -80 0
69 -71 -75 0
69 -71 -80 0
-69 75 80 0
-69 71 75 0
-69 71 80 0
-68 -69 75 0
-68 -69 80 0
-68 -69 71 0
68 69 -75 0
68 69 -80 0
68 69 -71 0
68 -71 -75 -80 0
-68 71 75 80 0
67 -73 -101 0
67 -69 -73 0
67 -69 -101 0
-67 73 101 0
-67 69 73 0
-67 69 101 0
-66 -67 73 0
-66 -67 101 0
-66 -67 69 0
66 67 -73 0
66 67 -101 0
66 67 -69 0
66 -69 -73 -101 0
-66 69 73 101 0
65 -94 -96 0
65 -67 -96 0
65 -67 -94 0
-65 94 96 0
-65 67 96 0
-65 67 94 0
-64 -65 96 0
-64 -65 94 0
-64 -65 67 0
64 65 -96 0
64 65 -94 0
64 65 -67 0
64 -67 -94 -96 0
-64 67 94 96 0
63 -90 -104 0
63 -65 -104 0
63 -65 -90 0
-63 90 104 0
-63 65 104 0
-63 65 90 0
-62 -63 104 0
-62 -63 90 0
-62 -63 65 0
62 63 -104 0
62 63 -90 0
62 63 -65 0
62 -65 -90 -104 0
-62 65 90 104 0
-61 70 0
61 -70 0
60 -68 -105 0
-60 68 105 0
-60 68 0
-60 105 0
-59 -60 68 0
-59 -60 105 0
-59 -60 0
59 60 -68 0
59 60 -105 0
-59 68 105 0
58 -66 -97 0
58 -60 -66 0
58 -60 -97 0
-58 66 97 0
-58 60 66 0
-58 60 97 0
-57 -58 66 0
-57 -58 97 0
-57 -58 60 0
57 58 -66 0
57 58 -97 0
57 58 -60 0
57 -60 -66 -97 0
-57 60 66 97 0
56 -64 -85 0
56 -58 -64 0
56 -58 -85 0
-56 64 85 0
-56 58 64 0
-56 58 85 0
56 -64 0
56 -85 0
56 -58 0
-58 -64 -85 0
55 -62 -80 0
55 -56 -62 0
55 -56 -80 0
-55 62 80 0
-55 56 62 0
-55 56 80 0
55 -62 0
55 -80 0
55 -56 0
-56 -62 -80 0
54 -63 -101 0
54 -55 -63 0
54 -55 -101 0
-54 63 101 0
-54 55 63 0
-54 55 101 0
54 -63 0
54 -101 0
54 -55 0
-55 -63 -101 0
94 -120 0
54 -120 0
-54 -94 120 0
54 -94 0
-54 94 0
-90 -120 0
-90 120 0
90 -120 0
-112 -121 0
112 121 0
112 -122 0
-112 122 0
121 -123 0
-79 -123 0
79 -121 123 0
79 -121 -124 0
-79 121 -124 0
79 121 124 0
-79 -121 124 0
123 -125 0
-93 -125 0
93 -123 125 0
93 -123 -126 0
-93 123 -126 0
93 123 126 0
-93 -123 126 0
125 -127 0
-72 -127 0
72 -125 127 0
72 -125 -128 0
-72 125 -128 0
72 125 128 0
-72 -125 128 0
127 -129 0
-61 -129 0
61 -127 129 0
61 -127 -130 0
-61 127 -130 0
61 127 130 0
-61 -127 130 0
129 -131 0
-59 -131 0
59 -129 131 0
59 -129 -132 0
-59 129 -132 0
59 129 132 0
-59 -129 132 0
131 -133 0
-57 -133 0
57 -131 133 0
57 -131 -134 0
-57 131 -134 0
57 131 134 0
-57 -131 134 0
133 -135 0
-133 135 0
-133 -136 0
133 136 0
135 -137 0
-135 137 0
-135 -138 0
135 138 0
137 -139 0
-137 139 0
-137 -140 0
137 140 0
139 -141 0
-139 141 0
-139 -142 0
139 142 0
141 -143 0
-141 143 0
-141 -144 0
141 144 0
143 -145 0
-143 145 0
-143 -146 0
143 146 0
-147 -149 0
-149 -150 0
147 149 150 0
147 150 -152 0
-147 -150 -152 0
-147 150 152 0
147 -150 152 0
149 -153 0
-153 -154 0
-149 153 154 0
-149 154 -156 0
149 -154 -156 0
149 154 156 0
-149 -154 156 0
153 -157 0
-157 -158 0
-153 157 158 0
-153 158 -160 0
153 -158 -160 0
153 158 160 0
-153 -158 160 0
157 -161 0
-161 -162 0
-157 161 162 0
-157 162 -164 0
157 -162 -164 0
157 162 164 0
-157 -162 164 0
-106 161 0
-106 -165 0
106 -161 165 0
-98 -161 165 0
-98 161 -165 0
98 161 165 0
98 -161 -165 0
-86 106 0
-86 -167 0
86 -106 167 0
-81 -106 167 0
-81 106 -167 0
81 106 167 0
81 -106 -167 0
86 -102 0
-102 -169 0
-86 102 169 0
-86 -95 169 0
86 -95 -169 0
86 95 169 0
-86 95 -169 0
-91 150 0
-91 147 0
91 -147 -150 0
-147 -148 -150 0
147 -148 150 0
147 148 -150 0
-147 148 150 0
-150 151 -154 0
-91 151 -154 0
-91 -150 151 0
150 -151 154 0
91 -151 154 0
91 150 -151 0
-151 154 -155 0
150 -151 -155 0
91 -151 -155 0
151 -154 155 0
-150 151 155 0
-91 151 155 0
-91 -150 -154 155 0
91 150 154 -155 0
-154 -158 159 0
-151 -158 159 0
-151 -154 159 0
154 158 -159 0
151 158 -159 0
151 154 -159 0
158 -159 -163 0
154 -159 -163 0
151 -159 -163 0
-158 159 163 0
-154 159 163 0
-151 159 163 0
-151 -154 -158 163 0
151 154 158 -163 0
-158 -162 166 0
-159 -162 166 0
-158 -159 166 0
158 162 -166 0
159 162 -166 0
158 159 -166 0
162 -166 -168 0
158 -166 -168 0
159 -166 -168 0
-162 166 168 0
-158 166 168 0
-159 166 168 0
-158 -159 -162 168 0
158 159 162 -168 0
-162 -165 170 0
-165 -166 170 0
-162 -166 170 0
162 165 -170 0
165 166 -170 0
162 166 -170 0
165 -170 -171 0
162 -170 -171 0
166 -170 -171 0
-165 170 171 0
-162 170 171 0
-166 170 171 0
-162 -165 -166 171 0
162 165 166 -171 0
-165 -167 172 0
-167 -170 172 0
-165 -170 172 0
165 167 -172 0
167 170 -172 0
165 170 -172 0
167 -172 -173 0
165 -172 -173 0
170 -172 -173 0
-167 172 173 0
-165 172 173 0
-170 172 173 0
-165 -167 -170 173 0
165 167 170 -173 0
-167 -169 174 0
-169 -172 174 0
-167 -172 174 0
167 169 -174 0
169 172 -174 0
167 172 -174 0
169 -174 -175 0
167 -174 -175 0
172 -174 -175 0
-169 174 175 0
-167 174 175 0
-172 174 175 0
-167 -169 -172 175 0
167 169 172 -175 0
169 -176 0
174 -176 0
-169 -174 176 0
-169 -174 -177 0
169 174 -177 0
-169 174 177 0
169 -174 177 0
155 -178 0
147 -178 0
-147 -155 178 0
-147 -155 -179 0
147 155 -179 0
147 -155 179 0
-147 155 179 0
-150 -163 180 0
-163 -178 180 0
-150 -178 180 0
150 163 -180 0
163 178 -180 0
150 178 -180 0
-53 163 -180 0
-53 150 -180 0
-53 178 -180 0
53 -163 180 0
53 -150 180 0
53 -178 180 0
53 -150 -163 -178 0
-53 150 163 178 0
52 -154 -168 0
52 -168 -180 0
52 -154 -180 0
-52 154 168 0
-52 168 180 0
-52 154 180 0
-51 -52 168 0
-51 -52 154 0
-51 -52 180 0
51 52 -168 0
51 52 -154 0
51 52 -180 0
51 -154 -168 -180 0
-51 154 168 180 0
50 -158 -171 0
50 -52 -171 0
50 -52 -158 0
-50 158 171 0
-50 52 171 0
-50 52 158 0
-49 -50 171 0
-49 -50 158 0
-49 -50 52 0
49 50 -171 0
49 50 -158 0
49 50 -52 0
49 -52 -158 -171 0
-49 52 158 171 0
48 -162 -173 0
48 -50 -173 0
48 -50 -162 0
-48 162 173 0
-48 50 173 0
-48 50 162 0
-47 -48 173 0
-47 -48 162 0
-47 -48 50 0
47 48 -173 0
47 48 -162 0
47 48 -50 0
47 -50 -162 -173 0
-47 50 162 173 0
46 -165 -175 0
46 -48 -175 0
46 -48 -165 0
-46 165 175 0
-46 48 175 0
-46 48 165 0
-45 -46 175 0
-45 -46 165 0
-45 -46 48 0
45 46 -175 0
45 46 -165 0
45 46 -48 0
45 -48 -165 -175 0
-45 48 165 175 0
44 -167 -177 0
44 -46 -177 0
44 -46 -167 0
-44 167 177 0
-44 46 177 0
-44 46 167 0
-43 -44 177 0
-43 -44 167 0
-43 -44 46 0
43 44 -177 0
43 44 -167 0
43 44 -46 0
43 -46 -167 -177 0
-43 46 167 177 0
42 -169 -176 0
42 -44 -176 0
42 -44 -169 0
-42 169 176 0
-42 44 176 0
-42 44 169 0
-41 -42 176 0
-41 -42 169 0
-41 -42 44 0
41 42 -176 0
41 42 -169 0
41 42 -44 0
41 -44 -169 -176 0
-41 44 169 176 0
-40 51 0
-40 147 0
40 -51 -147 0
-39 -51 -147 0
-39 51 147 0
39 -51 147 0
39 51 -147 0
38 -49 -150 0
38 -40 -49 0
38 -40 -150 0
-38 49 150 0
-38 40 49 0
-38 40 150 0
-37 -38 49 0
-37 -38 150 0
-37 -38 40 0
37 38 -49 0
37 38 -150 0
37 38 -40 0
37 -40 -49 -150 0
-37 40 49 150 0
36 -47 -154 0
36 -38 -47 0
36 -38 -154 0
-36 47 154 0
-36 38 47 0
-36 38 154 0
-35 -36 47 0
-35 -36 154 0
-35 -36 38 0
35 36 -47 0
35 36 -154 0
35 36 -38 0
35 -38 -47 -154 0
-35 38 47 154 0
34 -45 -158 0
34 -36 -45 0
34 -36 -158 0
-34 45 158 0
-34 36 45 0
-34 36 158 0
34 -45 0
34 -158 0
34 -36 0
-36 -45 -158 0
33 -43 -162 0
33 -34 -43 0
33 -34 -162 0
-33 43 162 0
-33 34 43 0
-33 34 162 0
33 -43 0
33 -162 0
33 -34 0
-34 -43 -162 0
32 -41 -165 0
32 -33 -41 0
32 -33 -165 0
-32 41 165 0
-32 33 41 0
-32 33 165 0
32 -41 0
32 -165 0
32 -33 0
-33 -41 -165 0
31 -42 -167 0
31 -32 -42 0
31 -32 -167 0
-31 42 167 0
-31 32 42 0
-31 32 167 0
31 -42 0
31 -167 0
31 -32 0
-32 -42 -167 0
-31 -169 0
31 -169 0
-31 169 0
-30 -147 0
-30 -148 0
30 147 148 0
-29 147 148 0
-29 -147 -148 0
29 -147 148 0
29 147 -148 0
-28 30 0
-28 -179 0
28 -30 179 0
-27 -30 179 0
-27 30 -179 0
27 30 179 0
27 -30 -179 0
-26 28 0
-26 -53 0
26 -28 53 0
-25 -28 53 0
-25 28 -53 0
25 28 53 0
25 -28 -53 0
-24 26 0
-24 -39 0
24 -26 39 0
-23 -26 39 0
-23 26 -39 0
23 26 39 0
23 -26 -39 0
-22 24 0
-22 -37 0
22 -24 37 0
-21 -24 37 0
-21 24 -37 0
21 24 37 0
21 -24 -37 0
-20 22 0
-20 -35 0
20 -22 35 0
-19 -22 35 0
-19 22 -35 0
19 22 35 0
19 -22 -35 0
-18 20 0
18 -20 0
-17 -20 0
17 20 0
-16 18 0
16 -18 0
-15 -18 0
15 18 0
-14 16 0
14 -16 0
-13 -16 0
13 16 0
-12 14 0
12 -14 0
-11 -14 0
11 14 0
-10 12 0
10 -12 0
-9 -12 0
9 12 0
-8 10 0
8 -10 0
-7 -10 0
7 10 0
-6 112 0
-6 147 0
6 -112 -147 0
-112 -147 0
112 147 0
5 -79 -148 0
5 -6 -79 0
5 -6 -148 0
-5 79 148 0
-5 6 79 0
-5 6 148 0
5 -79 0
5 -148 0
5 -6 0
-6 -79 -148 0
4 -93 -179 0
4 -5 -93 0
4 -5 -179 0
-4 93 179 0
-4 5 93 0
-4 5 179 0
4 -93 0
4 -179 0
4 -5 0
-5 -93 -179 0
3 -53 -72 0
3 -4 -72 0
3 -4 -53 0
-3 53 72 0
-3 4 72 0
-3 4 53 0
3 -72 0
3 -53 0
3 -4 0
-4 -53 -72 0
2 -39 -61 0
2 -3 -61 0
2 -3 -39 0
-2 39 61 0
-2 3 61 0
-2 3 39 0
2 -61 0
2 -39 0
2 -3 0
-3 -39 -61 0
1 -37 -59 0
1 -2 -59 0
1 -2 -37 0
-1 37 59 0
-1 2 59 0
-1 2 37 0
1 -59 0
1 -37 0
1 -2 0
-2 -37 -59 0
-35 -57 0
-1 -57 0
-1 -35 0
1 35 57 0
